\* WBM Problem *\
Maximize
Total_weights_of_Lselected_edges: 550 e_1_1 + 450 e_1_2 + 500 e_2_1
 + 500 e_2_2
Subject To
_C1: e_1_1 + e_1_2 <= 1
_C2: e_1_1 + e_2_1 <= 1
_C3: e_1_1 + e_1_2 <= 1
_C4: e_1_2 + e_2_2 <= 1
_C5: e_2_1 + e_2_2 <= 1
_C6: e_1_1 + e_2_1 <= 1
_C7: e_2_1 + e_2_2 <= 1
_C8: e_1_2 + e_2_2 <= 1
Binaries
e_1_1
e_1_2
e_2_1
e_2_2
End
